# Solution for model CG_Integer_Master
# Objective value = 54
lam_0_0 0
lam_0_1 0
lam_0_10 0
lam_0_11 0
lam_0_12 1
lam_0_13 0
lam_0_14 0
lam_0_15 0
lam_0_16 0
lam_0_17 0
lam_0_18 0
lam_0_19 0
lam_0_2 0
lam_0_3 0
lam_0_4 0
lam_0_5 0
lam_0_6 0
lam_0_7 0
lam_0_8 0
lam_0_9 0
lam_1_0 0
lam_1_1 0
lam_1_10 0
lam_1_11 0
lam_1_12 0
lam_1_13 0
lam_1_14 0
lam_1_15 0
lam_1_16 0
lam_1_17 0
lam_1_18 1
lam_1_19 0
lam_1_2 0
lam_1_3 0
lam_1_4 0
lam_1_5 0
lam_1_6 0
lam_1_7 0
lam_1_8 0
lam_1_9 0
lam_2_0 0
lam_2_1 0
lam_2_10 0
lam_2_11 0
lam_2_12 0
lam_2_13 0
lam_2_14 0
lam_2_15 1
lam_2_16 0
lam_2_17 0
lam_2_18 0
lam_2_19 0
lam_2_2 0
lam_2_3 0
lam_2_4 0
lam_2_5 0
lam_2_6 0
lam_2_7 0
lam_2_8 0
lam_2_9 0
lam_3_0 0
lam_3_1 0
lam_3_10 0
lam_3_11 0
lam_3_12 0
lam_3_13 0
lam_3_14 0
lam_3_15 0
lam_3_16 0
lam_3_17 0
lam_3_18 0
lam_3_19 0
lam_3_2 0
lam_3_3 0
lam_3_4 0
lam_3_5 1
lam_3_6 0
lam_3_7 0
lam_3_8 0
lam_3_9 0
lam_4_0 0
lam_4_1 0
lam_4_10 0
lam_4_11 0
lam_4_12 0
lam_4_13 0
lam_4_14 0
lam_4_15 0
lam_4_16 0
lam_4_17 0
lam_4_18 0
lam_4_19 0
lam_4_2 0
lam_4_3 0
lam_4_4 0
lam_4_5 0
lam_4_6 0
lam_4_7 0
lam_4_8 0
lam_4_9 1
lam_5_0 0
lam_5_1 0
lam_5_10 1
lam_5_11 0
lam_5_12 0
lam_5_13 0
lam_5_14 0
lam_5_15 0
lam_5_16 0
lam_5_17 0
lam_5_18 0
lam_5_19 0
lam_5_2 0
lam_5_3 0
lam_5_4 0
lam_5_5 0
lam_5_6 0
lam_5_7 0
lam_5_8 0
lam_5_9 0
